
;this file is automatically generated: Fri Jul 19 16:30:31 IST 2019

;declarations generated

(declare-fun obj_81540849_f1e5_4031_9f90_c297eec1640d ( Int) Int)
(declare-fun type_a5583265_d337_4a29_91bf_b5434be61641_Module ( Int) Bool)
(declare-fun module_credits ( Int) Int)
(declare-fun module_year ( Int) Int)
(declare-fun module_code ( Int) Int)
(declare-fun module_description ( Int) Int)

;formula(s) generated

 ;end of formula 